120
150
37
40
80
85
52
82
70
100
70
80
100
72
21
80
65
76
37
63
31
26
67
91
50
29
26
28
31
55
30
24
44
45
83
26
27
97
22
41
36
85
50
65
21
26
67
85
46
65
37
32
23
65
69
55
24
50
45
59
34
63
70
50
74
37
48
76
29
28
64
100
89
99
37
42
50
26
44
96
80
30
100
100
30
45
85
26
31
97
93
21
23
37
100
76
32
48
65
72
65
85
50
63
80
80
57
85
53
70
65
85
50
65
67
100
82
57
31
50
91
100
